Maximize
  13 x0 - 27 x1 + 0 x2 + 36 x3 - 34 x4 - 43 x5 + 0 x6 + 0 x7 + 0 x8 + 0 x9
   + 0 x10 - 11 x11 + 31 x12 + 36 x13 + 0 x14 + 0 x15 + 0 x16 + 0 x17
   + 0 x18 + 3 x19 + 28 x20 - 43 x21 + 15 x22 + 34 x23 + 0 x24 + 3 x25
   + 22 x26 + 0 x27 - 29 x28 + 0 x29 + [ 20 x0 ^2 + 14 x0 * x1 + 12 x0 * x2
   + 32 x0 * x3 + 32 x0 * x4 + 86 x0 * x6 - 72 x0 * x7 - 42 x0 * x8
   + 22 x0 * x9 - 86 x0 * x13 + 42 x0 * x15 - 68 x0 * x16 + 6 x0 * x19
   - 96 x0 * x21 + 86 x0 * x22 + 20 x0 * x23 + 32 x0 * x26 - 20 x0 * x27
   - 35 x1 ^2 - 40 x1 * x3 + 70 x1 * x5 - 30 x1 * x6 - 52 x1 * x7
   - 94 x1 * x8 - 46 x1 * x9 + 46 x1 * x11 - 34 x1 * x14 + 22 x1 * x16
   + 72 x1 * x17 + 52 x1 * x18 - 42 x1 * x19 + 82 x1 * x21 + 88 x1 * x22
   - 26 x1 * x23 + 50 x1 * x25 - 11 x2 ^2 + 6 x2 * x5 + 58 x2 * x6
   - 16 x2 * x8 - 84 x2 * x9 - 44 x2 * x10 + 88 x2 * x11 + 56 x2 * x13
   + 52 x2 * x14 - 76 x2 * x15 - 64 x2 * x17 + 96 x2 * x19 - 48 x2 * x20
   - 90 x2 * x21 + 80 x2 * x22 - 58 x2 * x23 + 80 x2 * x24 - 78 x2 * x26
   + 40 x2 * x27 + 22 x2 * x29 - 16 x3 * x6 - 2 x3 * x7 + 28 x3 * x8
   - 56 x3 * x10 - 80 x3 * x11 - 82 x3 * x13 + 66 x3 * x14 - 84 x3 * x15
   - 90 x3 * x21 - 68 x3 * x23 - 70 x3 * x26 - 58 x3 * x29 - 29 x4 ^2
   - 80 x4 * x6 - 18 x4 * x7 + 98 x4 * x10 + 54 x4 * x12 - 80 x4 * x13
   - 40 x4 * x15 + 86 x4 * x17 - 92 x4 * x18 - 50 x4 * x19 + 44 x4 * x20
   - 24 x4 * x21 - 56 x4 * x26 - 52 x4 * x28 - 22 x4 * x29 - 62 x5 * x6
   - 36 x5 * x9 + 30 x5 * x10 + 16 x5 * x11 - 4 x5 * x12 + 24 x5 * x14
   - 68 x5 * x15 - 4 x5 * x16 + 26 x5 * x18 - 18 x5 * x20 - 50 x5 * x21
   - 14 x5 * x22 + 76 x5 * x23 - 2 x5 * x25 + 28 x5 * x26 - 38 x5 * x27
   - 98 x5 * x29 - 49 x6 ^2 - 34 x6 * x7 - 70 x6 * x9 - 98 x6 * x10
   - 52 x6 * x11 + 36 x6 * x13 - 98 x6 * x17 + 82 x6 * x18 + 76 x6 * x19
   - 92 x6 * x22 - 12 x6 * x24 - 2 x6 * x25 - 12 x6 * x27 + 68 x6 * x28
   - 58 x6 * x29 + 24 x7 * x11 + 40 x7 * x14 - 30 x7 * x15 + 70 x7 * x19
   + 88 x7 * x26 - 34 x7 * x27 + 90 x7 * x28 - 12 x7 * x29 + 86 x8 * x9
   + 24 x8 * x11 + 74 x8 * x17 + 28 x8 * x18 - 36 x8 * x20 + 22 x8 * x21
   - 8 x8 * x22 + 30 x8 * x27 - 20 x9 * x10 - 32 x9 * x11 - 94 x9 * x12
   - 42 x9 * x13 + 74 x9 * x14 - 40 x9 * x15 - 2 x9 * x20 + 34 x9 * x23
   + 30 x9 * x24 + 92 x9 * x25 - 84 x9 * x26 - 34 x9 * x27 + 76 x10 * x15
   + 44 x10 * x16 - 70 x10 * x17 - 90 x10 * x20 - 2 x10 * x21
   - 74 x10 * x23 + 28 x10 * x24 - 86 x10 * x25 + 38 x10 * x29
   + 40 x11 * x12 + 90 x11 * x13 - 48 x11 * x15 - 94 x11 * x17
   + 54 x11 * x19 + 66 x11 * x21 - 2 x11 * x22 - 52 x11 * x24
   + 22 x11 * x26 - 96 x11 * x29 - 68 x12 * x13 + 54 x12 * x14
   - 22 x12 * x15 + 86 x12 * x17 + 82 x12 * x19 - 26 x12 * x20
   + 26 x12 * x23 - 12 x12 * x25 - 23 x13 ^2 - 32 x13 * x14 - 6 x13 * x16
   - 96 x13 * x18 - 42 x13 * x19 + 10 x13 * x21 + 18 x13 * x22
   + 88 x13 * x23 + 78 x13 * x24 - 28 x13 * x26 - 42 x13 * x27
   + 46 x13 * x29 - 9 x14 ^2 + 78 x14 * x17 - 74 x14 * x18 - 16 x14 * x21
   - 6 x14 * x22 - 36 x14 * x23 - 90 x14 * x25 + 20 x14 * x26
   - 58 x14 * x28 + 68 x15 * x16 - 62 x15 * x17 - 74 x15 * x18
   - 98 x15 * x19 + 22 x15 * x20 + 24 x15 * x21 - 36 x15 * x24
   - 88 x15 * x26 - 54 x15 * x27 + 11 x16 ^2 + 54 x16 * x18 + 18 x16 * x21
   + 76 x16 * x23 - 20 x16 * x24 - 74 x16 * x25 + 50 x16 * x26
   + 82 x16 * x27 + 16 x16 * x28 - 2 x16 * x29 - 98 x17 * x22
   - 42 x17 * x23 + 56 x17 * x25 + 2 x17 * x27 - 28 x17 * x28
   + 18 x17 * x29 + 20 x18 * x19 + 82 x18 * x21 - 40 x18 * x24
   + 6 x18 * x26 - 98 x18 * x28 + 80 x18 * x29 + 76 x19 * x21
   - 52 x19 * x22 - 4 x19 * x23 - 82 x19 * x24 - 32 x19 * x25
   + 84 x19 * x27 + 40 x20 * x22 - 68 x20 * x23 - 74 x20 * x24
   + 48 x20 * x25 + 46 x20 * x26 + 4 x20 * x28 - 62 x20 * x29 - x21 ^2
   + 32 x21 * x24 - 4 x21 * x26 - 12 x21 * x28 - 14 x22 ^2 + 58 x22 * x25
   - 94 x22 * x26 + 80 x22 * x27 + 22 x22 * x29 + 40 x23 ^2 - 46 x23 * x24
   - 50 x23 * x25 - 84 x23 * x26 + 74 x23 * x27 + 24 x23 * x28
   - 32 x23 * x29 - 8 x24 ^2 - 20 x24 * x25 + 82 x24 * x27 - 72 x24 * x29
   + 38 x25 * x28 + 32 x25 * x29 + 58 x26 * x27 + 28 x26 * x28
   + 26 x26 * x29 - 2 x27 ^2 + 22 x27 * x28 - 20 x27 * x29 - 17 x28 ^2
   - 34 x28 * x29 ] / 2 
Subject To
Bounds
 x0 <= 1
 x1 <= 1
 x2 <= 1
 x3 <= 1
 x4 <= 1
 x5 <= 1
 x6 <= 1
 x7 <= 1
 x8 <= 1
 x9 <= 1
 x10 <= 1
 x11 <= 1
 x12 <= 1
 x13 <= 1
 x14 <= 1
 x15 <= 1
 x16 <= 1
 x17 <= 1
 x18 <= 1
 x19 <= 1
 x20 <= 1
 x21 <= 1
 x22 <= 1
 x23 <= 1
 x24 <= 1
 x25 <= 1
 x26 <= 1
 x27 <= 1
 x28 <= 1
 x29 <= 1
End
